p cnf 20 1000
3 14 -15 0
-3 -14 15 0
1 7 -16 0
-1 -7 16 0
1 6 -14 0
-1 -6 14 0
2 15 -18 0
-2 -15 18 0
3 20 -1 0
-3 -20 1 0
14 18 -2 0
-14 -18 2 0
8 12 -18 0
-8 -12 18 0
3 7 -19 0
-3 -7 19 0
2 15 -16 0
-2 -15 16 0
6 17 -2 0
-6 -17 2 0
10 13 -1 0
-10 -13 1 0
6 15 -5 0
-6 -15 5 0
15 19 -14 0
-15 -19 14 0
6 13 -5 0
-6 -13 5 0
15 17 -13 0
-15 -17 13 0
3 16 -18 0
-3 -16 18 0
5 15 -2 0
-5 -15 2 0
11 13 -6 0
-11 -13 6 0
8 20 -7 0
-8 -20 7 0
11 20 -6 0
-11 -20 6 0
12 14 -10 0
-12 -14 10 0
6 16 -3 0
-6 -16 3 0
5 19 -20 0
-5 -19 20 0
9 10 -16 0
-9 -10 16 0
10 11 -14 0
-10 -11 14 0
10 18 -2 0
-10 -18 2 0
9 18 -6 0
-9 -18 6 0
9 14 -8 0
-9 -14 8 0
15 19 -4 0
-15 -19 4 0
9 18 -4 0
-9 -18 4 0
12 19 -10 0
-12 -19 10 0
1 4 -5 0
-1 -4 5 0
4 18 -3 0
-4 -18 3 0
15 17 -7 0
-15 -17 7 0
10 12 -2 0
-10 -12 2 0
8 18 -19 0
-8 -18 19 0
1 7 -15 0
-1 -7 15 0
4 7 -2 0
-4 -7 2 0
1 4 -13 0
-1 -4 13 0
13 19 -6 0
-13 -19 6 0
9 10 -14 0
-9 -10 14 0
15 16 -10 0
-15 -16 10 0
18 20 -6 0
-18 -20 6 0
4 5 -16 0
-4 -5 16 0
6 8 -18 0
-6 -8 18 0
5 7 -9 0
-5 -7 9 0
4 8 -16 0
-4 -8 16 0
3 13 -16 0
-3 -13 16 0
2 4 -16 0
-2 -4 16 0
10 17 -3 0
-10 -17 3 0
15 20 -5 0
-15 -20 5 0
4 14 -19 0
-4 -14 19 0
3 13 -17 0
-3 -13 17 0
6 11 -19 0
-6 -11 19 0
8 11 -1 0
-8 -11 1 0
13 16 -1 0
-13 -16 1 0
12 20 -3 0
-12 -20 3 0
10 11 -5 0
-10 -11 5 0
6 12 -18 0
-6 -12 18 0
13 15 -20 0
-13 -15 20 0
12 18 -7 0
-12 -18 7 0
9 16 -7 0
-9 -16 7 0
7 11 -12 0
-7 -11 12 0
9 15 -20 0
-9 -15 20 0
3 8 -11 0
-3 -8 11 0
10 14 -3 0
-10 -14 3 0
15 17 -18 0
-15 -17 18 0
17 19 -13 0
-17 -19 13 0
5 7 -20 0
-5 -7 20 0
13 15 -2 0
-13 -15 2 0
6 14 -4 0
-6 -14 4 0
1 11 -18 0
-1 -11 18 0
3 14 -16 0
-3 -14 16 0
1 18 -19 0
-1 -18 19 0
7 9 -14 0
-7 -9 14 0
4 9 -13 0
-4 -9 13 0
8 9 -20 0
-8 -9 20 0
14 15 -6 0
-14 -15 6 0
2 12 -14 0
-2 -12 14 0
8 11 -17 0
-8 -11 17 0
3 18 -1 0
-3 -18 1 0
1 6 -15 0
-1 -6 15 0
11 12 -1 0
-11 -12 1 0
10 13 -15 0
-10 -13 15 0
1 9 -12 0
-1 -9 12 0
10 13 -5 0
-10 -13 5 0
7 12 -18 0
-7 -12 18 0
10 19 -20 0
-10 -19 20 0
16 20 -4 0
-16 -20 4 0
14 18 -6 0
-14 -18 6 0
4 10 -16 0
-4 -10 16 0
9 10 -4 0
-9 -10 4 0
13 16 -9 0
-13 -16 9 0
13 20 -2 0
-13 -20 2 0
3 4 -11 0
-3 -4 11 0
15 18 -11 0
-15 -18 11 0
4 6 -20 0
-4 -6 20 0
12 19 -1 0
-12 -19 1 0
8 10 -4 0
-8 -10 4 0
13 19 -4 0
-13 -19 4 0
2 3 -9 0
-2 -3 9 0
2 6 -11 0
-2 -6 11 0
15 17 -11 0
-15 -17 11 0
12 16 -9 0
-12 -16 9 0
7 10 -2 0
-7 -10 2 0
14 15 -4 0
-14 -15 4 0
8 13 -7 0
-8 -13 7 0
2 16 -20 0
-2 -16 20 0
11 17 -9 0
-11 -17 9 0
6 10 -4 0
-6 -10 4 0
1 10 -16 0
-1 -10 16 0
2 18 -19 0
-2 -18 19 0
9 11 -16 0
-9 -11 16 0
16 20 -13 0
-16 -20 13 0
5 8 -19 0
-5 -8 19 0
9 10 -5 0
-9 -10 5 0
6 11 -4 0
-6 -11 4 0
2 4 -7 0
-2 -4 7 0
9 11 -17 0
-9 -11 17 0
11 20 -4 0
-11 -20 4 0
4 11 -15 0
-4 -11 15 0
16 17 -12 0
-16 -17 12 0
9 15 -4 0
-9 -15 4 0
1 4 -19 0
-1 -4 19 0
12 16 -3 0
-12 -16 3 0
17 19 -16 0
-17 -19 16 0
2 9 -12 0
-2 -9 12 0
7 11 -19 0
-7 -11 19 0
12 14 -5 0
-12 -14 5 0
8 15 -3 0
-8 -15 3 0
3 5 -6 0
-3 -5 6 0
5 12 -13 0
-5 -12 13 0
6 14 -18 0
-6 -14 18 0
9 18 -20 0
-9 -18 20 0
12 17 -6 0
-12 -17 6 0
15 20 -9 0
-15 -20 9 0
12 13 -14 0
-12 -13 14 0
15 18 -9 0
-15 -18 9 0
6 7 -14 0
-6 -7 14 0
16 19 -10 0
-16 -19 10 0
11 14 -9 0
-11 -14 9 0
10 13 -17 0
-10 -13 17 0
3 7 -16 0
-3 -7 16 0
1 4 -6 0
-1 -4 6 0
10 19 -3 0
-10 -19 3 0
11 16 -17 0
-11 -16 17 0
8 12 -19 0
-8 -12 19 0
5 9 -13 0
-5 -9 13 0
4 5 -11 0
-4 -5 11 0
5 11 -2 0
-5 -11 2 0
7 10 -16 0
-7 -10 16 0
2 5 -6 0
-2 -5 6 0
2 16 -1 0
-2 -16 1 0
11 17 -5 0
-11 -17 5 0
6 13 -18 0
-6 -13 18 0
17 19 -8 0
-17 -19 8 0
1 5 -6 0
-1 -5 6 0
4 19 -20 0
-4 -19 20 0
6 15 -2 0
-6 -15 2 0
4 8 -15 0
-4 -8 15 0
10 16 -19 0
-10 -16 19 0
14 15 -2 0
-14 -15 2 0
10 15 -18 0
-10 -15 18 0
3 18 -2 0
-3 -18 2 0
14 16 -6 0
-14 -16 6 0
11 14 -18 0
-11 -14 18 0
15 19 -5 0
-15 -19 5 0
10 12 -15 0
-10 -12 15 0
6 13 -4 0
-6 -13 4 0
1 2 -13 0
-1 -2 13 0
2 14 -17 0
-2 -14 17 0
10 14 -6 0
-10 -14 6 0
12 15 -16 0
-12 -15 16 0
13 16 -20 0
-13 -16 20 0
6 14 -3 0
-6 -14 3 0
14 17 -12 0
-14 -17 12 0
11 19 -6 0
-11 -19 6 0
10 20 -5 0
-10 -20 5 0
1 5 -19 0
-1 -5 19 0
1 10 -19 0
-1 -10 19 0
15 18 -13 0
-15 -18 13 0
4 7 -9 0
-4 -7 9 0
13 17 -12 0
-13 -17 12 0
5 14 -17 0
-5 -14 17 0
12 14 -9 0
-12 -14 9 0
1 3 -6 0
-1 -3 6 0
12 17 -2 0
-12 -17 2 0
2 9 -18 0
-2 -9 18 0
9 11 -6 0
-9 -11 6 0
2 13 -19 0
-2 -13 19 0
13 19 -10 0
-13 -19 10 0
14 17 -7 0
-14 -17 7 0
14 20 -10 0
-14 -20 10 0
7 11 -3 0
-7 -11 3 0
1 7 -11 0
-1 -7 11 0
15 17 -12 0
-15 -17 12 0
14 18 -12 0
-14 -18 12 0
18 19 -12 0
-18 -19 12 0
7 9 -4 0
-7 -9 4 0
10 20 -1 0
-10 -20 1 0
11 13 -10 0
-11 -13 10 0
5 16 -17 0
-5 -16 17 0
16 17 -11 0
-16 -17 11 0
4 16 -18 0
-4 -16 18 0
3 4 -18 0
-3 -4 18 0
6 16 -17 0
-6 -16 17 0
4 12 -17 0
-4 -12 17 0
7 10 -1 0
-7 -10 1 0
10 12 -14 0
-10 -12 14 0
17 19 -12 0
-17 -19 12 0
10 14 -19 0
-10 -14 19 0
8 12 -3 0
-8 -12 3 0
11 19 -5 0
-11 -19 5 0
9 11 -12 0
-9 -11 12 0
14 16 -19 0
-14 -16 19 0
8 9 -4 0
-8 -9 4 0
9 14 -4 0
-9 -14 4 0
13 15 -11 0
-13 -15 11 0
14 17 -9 0
-14 -17 9 0
8 17 -6 0
-8 -17 6 0
11 14 -4 0
-11 -14 4 0
17 20 -9 0
-17 -20 9 0
3 7 -13 0
-3 -7 13 0
12 19 -6 0
-12 -19 6 0
9 14 -2 0
-9 -14 2 0
7 17 -20 0
-7 -17 20 0
5 12 -18 0
-5 -12 18 0
2 19 -1 0
-2 -19 1 0
10 13 -14 0
-10 -13 14 0
2 11 -12 0
-2 -11 12 0
2 17 -1 0
-2 -17 1 0
1 6 -19 0
-1 -6 19 0
3 6 -17 0
-3 -6 17 0
7 12 -19 0
-7 -12 19 0
4 18 -19 0
-4 -18 19 0
10 14 -20 0
-10 -14 20 0
4 9 -3 0
-4 -9 3 0
14 16 -12 0
-14 -16 12 0
18 20 -12 0
-18 -20 12 0
1 12 -13 0
-1 -12 13 0
1 7 -12 0
-1 -7 12 0
2 5 -7 0
-2 -5 7 0
7 11 -20 0
-7 -11 20 0
4 5 -18 0
-4 -5 18 0
3 6 -2 0
-3 -6 2 0
13 15 -6 0
-13 -15 6 0
8 10 -17 0
-8 -10 17 0
3 15 -16 0
-3 -15 16 0
4 18 -20 0
-4 -18 20 0
1 9 -20 0
-1 -9 20 0
9 10 -18 0
-9 -10 18 0
14 18 -9 0
-14 -18 9 0
6 8 -3 0
-6 -8 3 0
4 10 -11 0
-4 -10 11 0
3 8 -9 0
-3 -8 9 0
5 6 -3 0
-5 -6 3 0
9 16 -20 0
-9 -16 20 0
9 19 -7 0
-9 -19 7 0
2 6 -17 0
-2 -6 17 0
2 5 -8 0
-2 -5 8 0
17 18 -7 0
-17 -18 7 0
9 17 -6 0
-9 -17 6 0
9 10 -19 0
-9 -10 19 0
10 16 -18 0
-10 -16 18 0
1 7 -17 0
-1 -7 17 0
12 16 -18 0
-12 -16 18 0
1 2 -19 0
-1 -2 19 0
7 11 -18 0
-7 -11 18 0
10 20 -2 0
-10 -20 2 0
3 9 -13 0
-3 -9 13 0
7 8 -12 0
-7 -8 12 0
2 4 -20 0
-2 -4 20 0
6 9 -10 0
-6 -9 10 0
15 18 -2 0
-15 -18 2 0
2 6 -14 0
-2 -6 14 0
7 9 -15 0
-7 -9 15 0
15 17 -9 0
-15 -17 9 0
2 7 -20 0
-2 -7 20 0
8 9 -11 0
-8 -9 11 0
4 7 -16 0
-4 -7 16 0
16 20 -8 0
-16 -20 8 0
7 15 -4 0
-7 -15 4 0
17 18 -8 0
-17 -18 8 0
1 2 -16 0
-1 -2 16 0
5 12 -20 0
-5 -12 20 0
3 18 -19 0
-3 -18 19 0
6 14 -15 0
-6 -14 15 0
6 10 -14 0
-6 -10 14 0
6 17 -4 0
-6 -17 4 0
17 20 -10 0
-17 -20 10 0
6 17 -5 0
-6 -17 5 0
12 20 -1 0
-12 -20 1 0
2 6 -8 0
-2 -6 8 0
11 14 -7 0
-11 -14 7 0
2 11 -15 0
-2 -11 15 0
11 13 -18 0
-11 -13 18 0
2 9 -14 0
-2 -9 14 0
9 13 -2 0
-9 -13 2 0
8 11 -14 0
-8 -11 14 0
8 13 -6 0
-8 -13 6 0
18 19 -9 0
-18 -19 9 0
17 20 -1 0
-17 -20 1 0
8 14 -2 0
-8 -14 2 0
3 6 -16 0
-3 -6 16 0
14 20 -13 0
-14 -20 13 0
15 18 -12 0
-15 -18 12 0
3 9 -10 0
-3 -9 10 0
12 18 -20 0
-12 -18 20 0
2 9 -1 0
-2 -9 1 0
8 9 -1 0
-8 -9 1 0
10 19 -2 0
-10 -19 2 0
12 20 -2 0
-12 -20 2 0
5 6 -1 0
-5 -6 1 0
12 16 -17 0
-12 -16 17 0
1 10 -13 0
-1 -10 13 0
6 20 -4 0
-6 -20 4 0
9 17 -20 0
-9 -17 20 0
2 3 -18 0
-2 -3 18 0
2 4 -8 0
-2 -4 8 0
14 15 -8 0
-14 -15 8 0
8 12 -20 0
-8 -12 20 0
15 17 -2 0
-15 -17 2 0
4 7 -11 0
-4 -7 11 0
8 20 -3 0
-8 -20 3 0
8 10 -7 0
-8 -10 7 0
11 14 -10 0
-11 -14 10 0
11 15 -5 0
-11 -15 5 0
14 20 -11 0
-14 -20 11 0
15 16 -1 0
-15 -16 1 0
16 19 -4 0
-16 -19 4 0
12 14 -7 0
-12 -14 7 0
11 15 -4 0
-11 -15 4 0
4 5 -2 0
-4 -5 2 0
8 19 -1 0
-8 -19 1 0
6 16 -4 0
-6 -16 4 0
18 20 -5 0
-18 -20 5 0
17 20 -15 0
-17 -20 15 0
4 17 -19 0
-4 -17 19 0
19 20 -13 0
-19 -20 13 0
2 9 -19 0
-2 -9 19 0
17 20 -6 0
-17 -20 6 0
6 10 -17 0
-6 -10 17 0
10 16 -2 0
-10 -16 2 0
6 7 -12 0
-6 -7 12 0
14 18 -10 0
-14 -18 10 0
9 17 -8 0
-9 -17 8 0
2 12 -13 0
-2 -12 13 0
5 8 -13 0
-5 -8 13 0
1 3 -10 0
-1 -3 10 0
12 14 -1 0
-12 -14 1 0
5 9 -16 0
-5 -9 16 0
12 20 -5 0
-12 -20 5 0
1 4 -20 0
-1 -4 20 0
9 10 -2 0
-9 -10 2 0
3 13 -20 0
-3 -13 20 0
3 12 -19 0
-3 -12 19 0
10 20 -8 0
-10 -20 8 0
6 15 -20 0
-6 -15 20 0
3 16 -20 0
-3 -16 20 0
12 19 -9 0
-12 -19 9 0
6 8 -12 0
-6 -8 12 0
14 17 -6 0
-14 -17 6 0
9 12 -15 0
-9 -12 15 0
14 19 -6 0
-14 -19 6 0
7 10 -3 0
-7 -10 3 0
13 14 -15 0
-13 -14 15 0
4 16 -20 0
-4 -16 20 0
2 11 -17 0
-2 -11 17 0
6 7 -16 0
-6 -7 16 0
18 20 -13 0
-18 -20 13 0
8 20 -6 0
-8 -20 6 0
1 12 -14 0
-1 -12 14 0
1 10 -11 0
-1 -10 11 0
11 12 -9 0
-11 -12 9 0
1 3 -13 0
-1 -3 13 0
2 8 -11 0
-2 -8 11 0
1 10 -12 0
-1 -10 12 0
7 17 -1 0
-7 -17 1 0
19 20 -8 0
-19 -20 8 0
14 20 -9 0
-14 -20 9 0
12 14 -2 0
-12 -14 2 0
8 9 -12 0
-8 -9 12 0
6 12 -19 0
-6 -12 19 0
6 8 -14 0
-6 -8 14 0
9 15 -16 0
-9 -15 16 0
5 8 -17 0
-5 -8 17 0
16 20 -12 0
-16 -20 12 0
13 16 -17 0
-13 -16 17 0
3 5 -10 0
-3 -5 10 0
13 14 -7 0
-13 -14 7 0
12 20 -8 0
-12 -20 8 0
2 8 -15 0
-2 -8 15 0
7 16 -3 0
-7 -16 3 0
12 19 -7 0
-12 -19 7 0
5 9 -17 0
-5 -9 17 0
16 18 -9 0
-16 -18 9 0
12 18 -3 0
-12 -18 3 0
10 17 -9 0
-10 -17 9 0
12 19 -2 0
-12 -19 2 0
1 15 -19 0
-1 -15 19 0
2 15 -20 0
-2 -15 20 0
1 15 -19 0
-1 -15 19 0
10 13 -2 0
-10 -13 2 0
12 17 -18 0
-12 -17 18 0
8 11 -20 0
-8 -11 20 0
6 7 -9 0
-6 -7 9 0
15 20 -10 0
-15 -20 10 0
8 18 -3 0
-8 -18 3 0
15 17 -20 0
-15 -17 20 0
4 13 -15 0
-4 -13 15 0
5 13 -2 0
-5 -13 2 0
1 2 -3 0
-1 -2 3 0
2 7 -10 0
-2 -7 10 0
1 13 -17 0
-1 -13 17 0
13 17 -9 0
-13 -17 9 0
16 20 -9 0
-16 -20 9 0
10 11 -13 0
-10 -11 13 0
2 10 -13 0
-2 -10 13 0
12 17 -1 0
-12 -17 1 0
5 13 -15 0
-5 -13 15 0
8 15 -2 0
-8 -15 2 0
1 9 -16 0
-1 -9 16 0
8 14 -3 0
-8 -14 3 0
15 18 -8 0
-15 -18 8 0
13 18 -11 0
-13 -18 11 0
3 8 -19 0
-3 -8 19 0
16 18 -7 0
-16 -18 7 0
12 17 -11 0
-12 -17 11 0
9 15 -8 0
-9 -15 8 0
3 10 -16 0
-3 -10 16 0
9 13 -7 0
-9 -13 7 0
16 20 -7 0
-16 -20 7 0
9 13 -17 0
-9 -13 17 0
9 11 -2 0
-9 -11 2 0
6 15 -16 0
-6 -15 16 0
10 13 -8 0
-10 -13 8 0
9 12 -14 0
-9 -12 14 0
3 6 -8 0
-3 -6 8 0
11 14 -2 0
-11 -14 2 0
6 12 -17 0
-6 -12 17 0
10 19 -1 0
-10 -19 1 0
8 17 -7 0
-8 -17 7 0
16 17 -10 0
-16 -17 10 0
8 19 -5 0
-8 -19 5 0
1 8 -11 0
-1 -8 11 0
10 12 -5 0
-10 -12 5 0
8 13 -20 0
-8 -13 20 0
3 12 -15 0
-3 -12 15 0
10 17 -20 0
-10 -17 20 0
18 20 -16 0
-18 -20 16 0
6 10 -19 0
-6 -10 19 0
5 19 -1 0
-5 -19 1 0
8 10 -16 0
-8 -10 16 0
15 17 -10 0
-15 -17 10 0
13 14 -19 0
-13 -14 19 0
5 16 -3 0
-5 -16 3 0
2 14 -20 0
-2 -14 20 0
4 16 -19 0
-4 -16 19 0
8 17 -19 0
-8 -17 19 0
10 11 -18 0
-10 -11 18 0
2 4 -9 0
-2 -4 9 0
6 18 -2 0
-6 -18 2 0
13 20 -10 0
-13 -20 10 0
11 19 -20 0
-11 -19 20 0
12 18 -6 0
-12 -18 6 0
8 16 -3 0
-8 -16 3 0
11 17 -8 0
-11 -17 8 0
12 13 -7 0
-12 -13 7 0
10 11 -7 0
-10 -11 7 0
10 20 -9 0
-10 -20 9 0
4 14 -16 0
-4 -14 16 0
14 15 -11 0
-14 -15 11 0
15 19 -6 0
-15 -19 6 0
5 16 -18 0
-5 -16 18 0
1 19 -20 0
-1 -19 20 0
18 19 -6 0
-18 -19 6 0
6 16 -18 0
-6 -16 18 0
1 3 -8 0
-1 -3 8 0
4 19 -2 0
-4 -19 2 0
2 6 -15 0
-2 -6 15 0
11 14 -8 0
-11 -14 8 0
6 8 -19 0
-6 -8 19 0
8 17 -4 0
-8 -17 4 0
5 10 -12 0
-5 -10 12 0
2 20 -1 0
-2 -20 1 0
6 11 -16 0
-6 -11 16 0
8 17 -3 0
-8 -17 3 0
7 14 -20 0
-7 -14 20 0
3 5 -2 0
-3 -5 2 0
4 7 -12 0
-4 -7 12 0
2 6 -13 0
-2 -6 13 0
8 13 -19 0
-8 -13 19 0
6 7 -10 0
-6 -7 10 0
7 14 -2 0
-7 -14 2 0
11 20 -7 0
-11 -20 7 0
5 9 -19 0
-5 -9 19 0
14 16 -20 0
-14 -16 20 0
3 4 -7 0
-3 -4 7 0
1 6 -11 0
-1 -6 11 0
7 11 -5 0
-7 -11 5 0
